(declare-const |main____CPAchecker_TMP_1':153:167:172:578:586| Int)
(declare-const |__VERIFIER_assert__cond___16':155:168:173:579:587| Int)
(declare-const |phi_main____CPAchecker_TMP_1:256:257:582:590| Int)
(declare-const havoc Int)
(declare-const |havoc:12:62:258:583:591| Int)
(declare-const |K:165:166:171:577:585| Int)
(declare-const __VERIFIER_assert__cond___15 Int)
(declare-const __VERIFIER_assert__cond___16 Int)
(declare-const |main__cp':152:170:175:581:589| Int)
(declare-const main____CPAchecker_TMP_1 Int)
(declare-const |havoc:1| Int)
(declare-const |havoc:2| Int)
(declare-const |havoc:9:61:176:584| Int)
(declare-const |__VERIFIER_assert__cond___15':154:169:174:580:588| Int)
(assert (and (<= (+ havoc -1000000) 0) (<= (+ (- havoc) -1000000) 0)
               (<= (+ |havoc:1| -1000000) 0)
               (<= (+ (- |havoc:1|) -1000000) 0)
               (<= (+ |havoc:2| -1000000) 0)
               (<= (+ (- |havoc:2|) -1000000) 0) (< (- havoc) 0)
               (< (- |havoc:1|) 0) (<= (- |havoc:2|) 0) (not (= |havoc:2| 0))
               (<= (+ |havoc:2| (- havoc) 1) 0)
               (not (= (ite (< (+ |havoc:2| (- havoc) -1) 0) 1 0) 0))
               (not (= (ite (<= (+ (- |havoc:2|) 1) 0) 1 0) 0))
               (not (= |havoc:9:61:176:584| 0))
               (not (= (ite (< (+ |havoc:2| (- havoc)) 0) 1 0) 0))
               (not (= (ite (<= (- |havoc:2|) 0) 1 0) 0))
               (or (not (and (<= (- |K:165:166:171:577:585|) 0)
                               (<= |K:165:166:171:577:585| 0)))
                     (= (+ (- main____CPAchecker_TMP_1)
                             |main____CPAchecker_TMP_1':153:167:172:578:586|) 0))
               (or (not (<= (+ (- |K:165:166:171:577:585|) 1) 0))
                     (= |main____CPAchecker_TMP_1':153:167:172:578:586| 0))
               (or (not (and (<= (- |K:165:166:171:577:585|) 0)
                               (<= |K:165:166:171:577:585| 0)))
                     (= (+ (- __VERIFIER_assert__cond___16)
                             |__VERIFIER_assert__cond___16':155:168:173:579:587|) 0))
               (or (not (<= (+ (- |K:165:166:171:577:585|) 1) 0))
                     (= (+ |__VERIFIER_assert__cond___16':155:168:173:579:587|
                             -1) 0))
               (or (not (and (<= (- |K:165:166:171:577:585|) 0)
                               (<= |K:165:166:171:577:585| 0)))
                     (= (+ (- __VERIFIER_assert__cond___15)
                             |__VERIFIER_assert__cond___15':154:169:174:580:588|) 0))
               (or (not (<= (+ (- |K:165:166:171:577:585|) 1) 0))
                     (= (+ |__VERIFIER_assert__cond___15':154:169:174:580:588|
                             -1) 0))
               (or (not (<= (- |K:165:166:171:577:585|) 0))
                     (= (+ |main__cp':152:170:175:581:589|
                             (- |K:165:166:171:577:585|) (- |havoc:2|)) 0))
               (or (and (= |K:165:166:171:577:585| 0)
                          (= (+ __VERIFIER_assert__cond___16
                                  (- |__VERIFIER_assert__cond___16':155:168:173:579:587|)) 0)
                          (= (+ __VERIFIER_assert__cond___15
                                  (- |__VERIFIER_assert__cond___15':154:169:174:580:588|)) 0)
                          (= (+ main____CPAchecker_TMP_1
                                  (- |main____CPAchecker_TMP_1':153:167:172:578:586|)) 0)
                          (= (+ (- |main__cp':152:170:175:581:589|) |havoc:2|) 0))
                     (and (<= (+ (- |K:165:166:171:577:585|) 1) 0)
                            (<= (+ |havoc:2| (- havoc) 2) 0)
                            (<= (+ (- |havoc:2|) 1) 0)
                            (= (+ |__VERIFIER_assert__cond___16':155:168:173:579:587|
                                    -1) 0)
                            (= (+ |__VERIFIER_assert__cond___15':154:169:174:580:588|
                                    -1) 0)
                            (= |main____CPAchecker_TMP_1':153:167:172:578:586| 0)
                            (<= (+ |main__cp':152:170:175:581:589| (- 
                                     havoc) 1) 0)
                            (<= (+ (- |main__cp':152:170:175:581:589|) 2) 0)))
               (<= (- |K:165:166:171:577:585|) 0) (< (- havoc) 0)
               (< (- |main__cp':152:170:175:581:589|) 0)
               (or (and (<= (+ (- |main__cp':152:170:175:581:589|) havoc -1) 0)
                          (<= (+ |main__cp':152:170:175:581:589| (- havoc) 1) 0)
                          (= (+ (- |phi_main____CPAchecker_TMP_1:256:257:582:590|)
                                  |main____CPAchecker_TMP_1':153:167:172:578:586|) 0))
                     (and (or (< (+ |main__cp':152:170:175:581:589| (- 
                                      havoc) 1) 0)
                                (< (+ (- |main__cp':152:170:175:581:589|)
                                        havoc -1) 0))
                            (not (= |havoc:12:62:258:583:591| 0))
                            (= (+ |havoc:12:62:258:583:591|
                                    (- |phi_main____CPAchecker_TMP_1:256:257:582:590|)) 0)))
               (not (= (ite (< (+ |main__cp':152:170:175:581:589| (- havoc)) 0)
                            1 0) 0))
               (not (= (ite (<= (- |main__cp':152:170:175:581:589|) 0) 1 0) 0))
               (not (= (+ |main__cp':152:170:175:581:589| (- havoc) 1) 0))
               (not (= (ite (< (+ |main__cp':152:170:175:581:589| (- havoc) 1) 0)
                            1 0) 0))
               (= (ite (<= (+ (- |main__cp':152:170:175:581:589|) -1) 0) 1 0) 0)))
(check-sat)
